bender/MIP.sol
# Solution for model MIP
# Objective value = 2.1000000000000014e+01
x_1 0
x_2 0
x_3 3
y_1 0
y_2 1.9999999999999960e+00
y_3 0
